unsat
( c0
  c1
  c10
  c107
  c1875
  c1982
  c1983
  c2
  c3
  c4
  c460
  c462
  c469
  c473
  c479
  c485
  c491
  c497
  c5
  c503
  c509
  c515
  c521
  c527
  c533
  c540
  c547
  c554
  c561
  c568
  c575
  c582
  c589
  c596
  c6
  c603
  c610
  c617
  c624
  c631
  c638
  c645
  c652
  c659
  c666
  c7
  c73
  c8
  c9 )
